38 57 21 61 6 15 84 75 99 53 35 9 44 50 56 63 70 16 73 58 98 36 77 74 68 11 71 78 66 17 20 18 54 24 43 14 28 10 2 23 88 64 97 5 72 19 94 29 34 65 26 37 30 22 59 69 52 41 82 46 62 81 85 7 92 49 48 76 0 80 93 45 8 47 60 95 1 86 31 89 55 90 40 51 96 13 3 12 67 79 25 32 87 4 27 83 33 39 91 42 

